(set-logic ALL)
(declare-fun var0 () String)
(assert (str.in_re var0 (re.++ (re.* (re.union (str.to_re "000") (str.to_re "111"))) (re.++ (re.+ (re.* (str.to_re "22"))) (re.++ (re.* (re.union (str.to_re "33") (str.to_re "44"))) (re.++ (re.union (re.+ (str.to_re "5")) (re.+ (str.to_re "666"))) (re.++ (re.union (re.+ (str.to_re "7")) (re.+ (str.to_re "888"))) (re.++ (re.+ (re.* (str.to_re "999"))) (re.++ (re.union (re.union (str.to_re "aa") (str.to_re "b")) (re.union (str.to_re "cc") (str.to_re "ddd"))) (re.++ (re.union (re.+ (str.to_re "eee")) (re.+ (str.to_re "ff"))) (re.++ (re.union (re.union (str.to_re "ggg") (str.to_re "h")) (re.union (str.to_re "iii") (str.to_re "jj"))) (re.+ (re.+ (str.to_re "k"))))))))))))))
(assert (<= 26 (str.len var0)))
(check-sat)